Version identifier: 22.1.1.0 | 2022-11-28 | 9160aff4d
CPXPARAM_Threads                                 8
CPXPARAM_Emphasis_MIP                            5
CPXPARAM_TimeLimit                               3600
CPXPARAM_MIP_Tolerances_MIPGap                   0.029999999999999999
Tried aggregator 2 times.
MIP Presolve eliminated 327 rows and 188 columns.
Aggregator did 75 substitutions.
Reduced MIP has 1035 rows, 830 columns, and 3901 nonzeros.
Reduced MIP has 716 binaries, 114 generals, 0 SOSs, and 0 indicators.
Presolve time = 0.00 sec. (3.71 ticks)
Found incumbent of value 520.000000 after 0.02 sec. (13.54 ticks)
Probing fixed 34 vars, tightened 31 bounds.
Probing time = 0.00 sec. (2.92 ticks)
Tried aggregator 1 time.
Detecting symmetries...
MIP Presolve eliminated 50 rows and 36 columns.
Reduced MIP has 985 rows, 794 columns, and 3708 nonzeros.
Reduced MIP has 680 binaries, 114 generals, 0 SOSs, and 0 indicators.
Presolve time = 0.00 sec. (3.54 ticks)
Probing time = 0.00 sec. (2.24 ticks)
Clique table members: 1296.
MIP emphasis: heuristic.
MIP search method: dynamic search.
Parallel mode: deterministic, using up to 8 threads.
Root relaxation solution time = 0.01 sec. (7.29 ticks)

        Nodes                                         Cuts/
   Node  Left     Objective  IInf  Best Integer    Best Bound    ItCnt     Gap

*     0+    0                          520.0000        0.0000           100.00%
*     0     0      integral     0      314.0000      314.0000      413    0.00%
Elapsed time = 0.04 sec. (31.69 ticks, tree = 0.00 MB, solutions = 2)
Version identifier: 22.1.1.0 | 2022-11-28 | 9160aff4d
CPXPARAM_Threads                                 8
CPXPARAM_Emphasis_MIP                            5
CPXPARAM_TimeLimit                               3600
CPXPARAM_MIP_Tolerances_MIPGap                   0.029999999999999999
Tried aggregator 4 times.
MIP Presolve eliminated 442 rows and 274 columns.
Aggregator did 80 substitutions.
Reduced MIP has 1611 rows, 1307 columns, and 6147 nonzeros.
Reduced MIP has 1130 binaries, 177 generals, 0 SOSs, and 0 indicators.
Presolve time = 0.01 sec. (8.59 ticks)
Probing fixed 79 vars, tightened 74 bounds.
Probing time = 0.01 sec. (6.40 ticks)
Tried aggregator 1 time.
Detecting symmetries...
MIP Presolve eliminated 105 rows and 85 columns.
Reduced MIP has 1506 rows, 1222 columns, and 5724 nonzeros.
Reduced MIP has 1045 binaries, 177 generals, 0 SOSs, and 0 indicators.
Presolve time = 0.01 sec. (5.36 ticks)
Probing fixed 8 vars, tightened 9 bounds.
Probing time = 0.01 sec. (5.59 ticks)
Clique table members: 3606.
MIP emphasis: heuristic.
MIP search method: dynamic search.
Parallel mode: deterministic, using up to 8 threads.
Root relaxation solution time = 0.03 sec. (10.37 ticks)

        Nodes                                         Cuts/
   Node  Left     Objective  IInf  Best Integer    Best Bound    ItCnt     Gap

      0     0      323.5000    72                    323.5000      518         
*     0+    0                          606.0000      323.5000            46.62%
*     0+    0                          324.0000      323.5000             0.15%
      0     0        cutoff            324.0000      324.0000      518    0.00%
Elapsed time = 0.18 sec. (116.57 ticks, tree = 0.01 MB, solutions = 2)
Version identifier: 22.1.1.0 | 2022-11-28 | 9160aff4d
CPXPARAM_Threads                                 8
CPXPARAM_Emphasis_MIP                            5
CPXPARAM_TimeLimit                               3600
CPXPARAM_MIP_Tolerances_MIPGap                   0.029999999999999999
Tried aggregator 2 times.
MIP Presolve eliminated 536 rows and 352 columns.
Aggregator did 86 substitutions.
Reduced MIP has 2194 rows, 1787 columns, and 8441 nonzeros.
Reduced MIP has 1547 binaries, 240 generals, 0 SOSs, and 0 indicators.
Presolve time = 0.02 sec. (7.56 ticks)
Probing fixed 136 vars, tightened 129 bounds.
Probing time = 0.02 sec. (11.17 ticks)
Tried aggregator 1 time.
Detecting symmetries...
MIP Presolve eliminated 169 rows and 140 columns.
Reduced MIP has 2025 rows, 1647 columns, and 7735 nonzeros.
Reduced MIP has 1407 binaries, 240 generals, 0 SOSs, and 0 indicators.
Presolve time = 0.01 sec. (7.17 ticks)
Probing time = 0.00 sec. (2.96 ticks)
Clique table members: 5171.
MIP emphasis: heuristic.
MIP search method: dynamic search.
Parallel mode: deterministic, using up to 8 threads.
Root relaxation solution time = 0.05 sec. (35.88 ticks)

        Nodes                                         Cuts/
   Node  Left     Objective  IInf  Best Integer    Best Bound    ItCnt     Gap

*     0     0      integral     0      361.0000      361.0000     1138    0.00%
Elapsed time = 0.15 sec. (119.39 ticks, tree = 0.00 MB, solutions = 1)
Version identifier: 22.1.1.0 | 2022-11-28 | 9160aff4d
CPXPARAM_Threads                                 8
CPXPARAM_Emphasis_MIP                            5
CPXPARAM_TimeLimit                               3600
CPXPARAM_MIP_Tolerances_MIPGap                   0.029999999999999999
Tried aggregator 2 times.
MIP Presolve eliminated 729 rows and 515 columns.
Aggregator did 87 substitutions.
Reduced MIP has 2462 rows, 2006 columns, and 9468 nonzeros.
Reduced MIP has 1737 binaries, 269 generals, 0 SOSs, and 0 indicators.
Presolve time = 0.01 sec. (8.59 ticks)
Probing fixed 155 vars, tightened 147 bounds.
Probing time = 0.02 sec. (12.96 ticks)
Tried aggregator 1 time.
Detecting symmetries...
MIP Presolve eliminated 193 rows and 160 columns.
Reduced MIP has 2269 rows, 1846 columns, and 8657 nonzeros.
Reduced MIP has 1577 binaries, 269 generals, 0 SOSs, and 0 indicators.
Presolve time = 0.01 sec. (7.99 ticks)
Probing time = 0.00 sec. (3.16 ticks)
Clique table members: 5772.
MIP emphasis: heuristic.
MIP search method: dynamic search.
Parallel mode: deterministic, using up to 8 threads.
Root relaxation solution time = 0.06 sec. (34.84 ticks)

        Nodes                                         Cuts/
   Node  Left     Objective  IInf  Best Integer    Best Bound    ItCnt     Gap

      0     0      422.3333   104                    422.3333      996         
*     0+    0                          441.0000      422.3333             4.23%
*     0+    0                          438.0000      422.3333             3.58%
*     0+    0                          427.0000      422.3333             1.09%
      0     0        cutoff            427.0000      427.0000     1096    0.00%
Elapsed time = 0.30 sec. (266.82 ticks, tree = 0.01 MB, solutions = 3)

Lift and project cuts applied:  1
Gomory fractional cuts applied:  1

Root node processing (before b&c):
  Real time             =    0.30 sec. (266.92 ticks)
Parallel b&c, 8 threads:
  Real time             =    0.00 sec. (0.00 ticks)
  Sync time (average)   =    0.00 sec.
  Wait time (average)   =    0.00 sec.
                          ------------
Total (root+branch&cut) =    0.30 sec. (266.92 ticks)

Root node processing (before b&c):
  Real time             =    0.15 sec. (119.46 ticks)
Parallel b&c, 8 threads:
  Real time             =    0.00 sec. (0.00 ticks)
  Sync time (average)   =    0.00 sec.
  Wait time (average)   =    0.00 sec.
                          ------------
Total (root+branch&cut) =    0.15 sec. (119.46 ticks)

Root node processing (before b&c):
  Real time             =    0.18 sec. (116.63 ticks)
Parallel b&c, 8 threads:
  Real time             =    0.00 sec. (0.00 ticks)
  Sync time (average)   =    0.00 sec.
  Wait time (average)   =    0.00 sec.
                          ------------
Total (root+branch&cut) =    0.18 sec. (116.63 ticks)

Root node processing (before b&c):
  Real time             =    0.04 sec. (31.73 ticks)
Parallel b&c, 8 threads:
  Real time             =    0.00 sec. (0.00 ticks)
  Sync time (average)   =    0.00 sec.
  Wait time (average)   =    0.00 sec.
                          ------------
Total (root+branch&cut) =    0.04 sec. (31.73 ticks)
Version identifier: 22.1.1.0 | 2022-11-28 | 9160aff4d
CPXPARAM_Threads                                 8
CPXPARAM_Emphasis_MIP                            5
CPXPARAM_TimeLimit                               3600
CPXPARAM_MIP_Tolerances_MIPGap                   0.029999999999999999
Tried aggregator 2 times.
MIP Presolve eliminated 327 rows and 188 columns.
Aggregator did 75 substitutions.
Reduced MIP has 1035 rows, 830 columns, and 3901 nonzeros.
Reduced MIP has 716 binaries, 114 generals, 0 SOSs, and 0 indicators.
Presolve time = 0.00 sec. (3.71 ticks)
Found incumbent of value 520.000000 after 0.02 sec. (13.54 ticks)
Probing fixed 34 vars, tightened 31 bounds.
Probing time = 0.00 sec. (2.92 ticks)
Tried aggregator 1 time.
Detecting symmetries...
MIP Presolve eliminated 50 rows and 36 columns.
Reduced MIP has 985 rows, 794 columns, and 3708 nonzeros.
Reduced MIP has 680 binaries, 114 generals, 0 SOSs, and 0 indicators.
Presolve time = 0.00 sec. (3.54 ticks)
Probing time = 0.00 sec. (2.24 ticks)
Clique table members: 1296.
MIP emphasis: heuristic.
MIP search method: dynamic search.
Parallel mode: deterministic, using up to 8 threads.
Root relaxation solution time = 0.01 sec. (7.29 ticks)

        Nodes                                         Cuts/
   Node  Left     Objective  IInf  Best Integer    Best Bound    ItCnt     Gap

*     0+    0                          520.0000        0.0000           100.00%
*     0     0      integral     0      314.0000      314.0000      413    0.00%
Elapsed time = 0.04 sec. (31.69 ticks, tree = 0.00 MB, solutions = 2)
Version identifier: 22.1.1.0 | 2022-11-28 | 9160aff4d
CPXPARAM_Threads                                 8
CPXPARAM_Emphasis_MIP                            5
CPXPARAM_TimeLimit                               3600
CPXPARAM_MIP_Tolerances_MIPGap                   0.029999999999999999
Tried aggregator 4 times.
MIP Presolve eliminated 442 rows and 274 columns.
Aggregator did 80 substitutions.
Reduced MIP has 1611 rows, 1307 columns, and 6147 nonzeros.
Reduced MIP has 1130 binaries, 177 generals, 0 SOSs, and 0 indicators.
Presolve time = 0.01 sec. (8.59 ticks)
Probing fixed 79 vars, tightened 74 bounds.
Probing time = 0.01 sec. (6.40 ticks)
Tried aggregator 1 time.
Detecting symmetries...
MIP Presolve eliminated 105 rows and 85 columns.
Reduced MIP has 1506 rows, 1222 columns, and 5724 nonzeros.
Reduced MIP has 1045 binaries, 177 generals, 0 SOSs, and 0 indicators.
Presolve time = 0.01 sec. (5.36 ticks)
Probing fixed 8 vars, tightened 9 bounds.
Probing time = 0.01 sec. (5.59 ticks)
Clique table members: 3606.
MIP emphasis: heuristic.
MIP search method: dynamic search.
Parallel mode: deterministic, using up to 8 threads.
Root relaxation solution time = 0.03 sec. (10.37 ticks)

        Nodes                                         Cuts/
   Node  Left     Objective  IInf  Best Integer    Best Bound    ItCnt     Gap

      0     0      323.5000    72                    323.5000      518         
*     0+    0                          606.0000      323.5000            46.62%
*     0+    0                          324.0000      323.5000             0.15%
      0     0        cutoff            324.0000      324.0000      518    0.00%
Elapsed time = 0.18 sec. (116.57 ticks, tree = 0.01 MB, solutions = 2)
Version identifier: 22.1.1.0 | 2022-11-28 | 9160aff4d
CPXPARAM_Threads                                 8
CPXPARAM_Emphasis_MIP                            5
CPXPARAM_TimeLimit                               3600
CPXPARAM_MIP_Tolerances_MIPGap                   0.029999999999999999
Tried aggregator 2 times.
MIP Presolve eliminated 536 rows and 352 columns.
Aggregator did 86 substitutions.
Reduced MIP has 2194 rows, 1787 columns, and 8441 nonzeros.
Reduced MIP has 1547 binaries, 240 generals, 0 SOSs, and 0 indicators.
Presolve time = 0.02 sec. (7.56 ticks)
Probing fixed 136 vars, tightened 129 bounds.
Probing time = 0.02 sec. (11.17 ticks)
Tried aggregator 1 time.
Detecting symmetries...
MIP Presolve eliminated 169 rows and 140 columns.
Reduced MIP has 2025 rows, 1647 columns, and 7735 nonzeros.
Reduced MIP has 1407 binaries, 240 generals, 0 SOSs, and 0 indicators.
Presolve time = 0.01 sec. (7.17 ticks)
Probing time = 0.00 sec. (2.96 ticks)
Clique table members: 5171.
MIP emphasis: heuristic.
MIP search method: dynamic search.
Parallel mode: deterministic, using up to 8 threads.
Root relaxation solution time = 0.05 sec. (35.88 ticks)

        Nodes                                         Cuts/
   Node  Left     Objective  IInf  Best Integer    Best Bound    ItCnt     Gap

*     0     0      integral     0      361.0000      361.0000     1138    0.00%
Elapsed time = 0.16 sec. (119.39 ticks, tree = 0.00 MB, solutions = 1)
Version identifier: 22.1.1.0 | 2022-11-28 | 9160aff4d
CPXPARAM_Threads                                 8
CPXPARAM_Emphasis_MIP                            5
CPXPARAM_TimeLimit                               3600
CPXPARAM_MIP_Tolerances_MIPGap                   0.029999999999999999
Tried aggregator 2 times.
MIP Presolve eliminated 729 rows and 515 columns.
Aggregator did 87 substitutions.
Reduced MIP has 2462 rows, 2006 columns, and 9468 nonzeros.
Reduced MIP has 1737 binaries, 269 generals, 0 SOSs, and 0 indicators.
Presolve time = 0.02 sec. (8.59 ticks)
Probing fixed 155 vars, tightened 147 bounds.
Probing time = 0.02 sec. (12.96 ticks)
Tried aggregator 1 time.
Detecting symmetries...
MIP Presolve eliminated 193 rows and 160 columns.
Reduced MIP has 2269 rows, 1846 columns, and 8657 nonzeros.
Reduced MIP has 1577 binaries, 269 generals, 0 SOSs, and 0 indicators.
Presolve time = 0.01 sec. (7.99 ticks)
Probing time = 0.00 sec. (3.16 ticks)
Clique table members: 5772.
MIP emphasis: heuristic.
MIP search method: dynamic search.
Parallel mode: deterministic, using up to 8 threads.
Root relaxation solution time = 0.05 sec. (34.84 ticks)

        Nodes                                         Cuts/
   Node  Left     Objective  IInf  Best Integer    Best Bound    ItCnt     Gap

      0     0      422.3333   104                    422.3333      996         
*     0+    0                          441.0000      422.3333             4.23%
*     0+    0                          438.0000      422.3333             3.58%
*     0+    0                          427.0000      422.3333             1.09%
      0     0        cutoff            427.0000      427.0000     1096    0.00%
Elapsed time = 0.31 sec. (266.82 ticks, tree = 0.01 MB, solutions = 3)

Lift and project cuts applied:  1
Gomory fractional cuts applied:  1

Root node processing (before b&c):
  Real time             =    0.31 sec. (266.92 ticks)
Parallel b&c, 8 threads:
  Real time             =    0.00 sec. (0.00 ticks)
  Sync time (average)   =    0.00 sec.
  Wait time (average)   =    0.00 sec.
                          ------------
Total (root+branch&cut) =    0.31 sec. (266.92 ticks)

Root node processing (before b&c):
  Real time             =    0.16 sec. (119.46 ticks)
Parallel b&c, 8 threads:
  Real time             =    0.00 sec. (0.00 ticks)
  Sync time (average)   =    0.00 sec.
  Wait time (average)   =    0.00 sec.
                          ------------
Total (root+branch&cut) =    0.16 sec. (119.46 ticks)

Root node processing (before b&c):
  Real time             =    0.18 sec. (116.63 ticks)
Parallel b&c, 8 threads:
  Real time             =    0.00 sec. (0.00 ticks)
  Sync time (average)   =    0.00 sec.
  Wait time (average)   =    0.00 sec.
                          ------------
Total (root+branch&cut) =    0.18 sec. (116.63 ticks)

Root node processing (before b&c):
  Real time             =    0.04 sec. (31.73 ticks)
Parallel b&c, 8 threads:
  Real time             =    0.00 sec. (0.00 ticks)
  Sync time (average)   =    0.00 sec.
  Wait time (average)   =    0.00 sec.
                          ------------
Total (root+branch&cut) =    0.04 sec. (31.73 ticks)
